6
raw_data/rcpsp/CV.xlsx cv6
Time limit set to 60 seconds
Running CP solver
/home/omastto1/General-Optimization-Solver/src/solvers/rcpsp.py:31(stream:43:6): Warning: Cumulative expression 'pulse': height is zero, expression is zero everywhere.
                                                                                            VarCumulAtom_82 = pulse("0", 0)
/home/omastto1/General-Optimization-Solver/src/solvers/rcpsp.py:31(stream:43:391): Warning: Cumulative expression 'pulse': height is zero, expression is zero everywhere.
                                                                                              VarCumulAtom_106 = pulse("24", 0)
/home/omastto1/General-Optimization-Solver/src/solvers/rcpsp.py:31(stream:44:6): Warning: Cumulative expression 'pulse': height is zero, expression is zero everywhere.
                                                                                            VarCumulAtom_110 = pulse("0", 0)
/home/omastto1/General-Optimization-Solver/src/solvers/rcpsp.py:31(stream:44:393): Warning: Cumulative expression 'pulse': height is zero, expression is zero everywhere.
                                                                                              VarCumulAtom_134 = pulse("24", 0)
 ! --------------------------------------------------- CP Optimizer 20.1.0.0 --
 ! Minimization problem - 26 variables, 48 constraints
 ! TimeLimit            = 60
 ! Workers              = 14
 ! LogVerbosity         = Terse
 ! Initial process time : 0.00s (0.00s extraction + 0.00s propagation)
 !  . Log search space  : 136.0 (before), 136.0 (after)
 !  . Memory usage      : 550.6 kB (before), 550.6 kB (after)
 ! Using parallel search with 14 workers.
 ! ----------------------------------------------------------------------------
 !          Best Branches  Non-fixed    W       Branch decision
                        0         26                 -
 + New bound is 18
 ! Using iterative diving.
 ! Using temporal relaxation.
 *            50       53  1.00s        1      (gap is 64.00%)
 *            49      105  1.00s        1      (gap is 63.27%)
              49     2941          2    1   F        -
 + New bound is 41 (gap is 16.33%)
 ! Using failure-directed search.
              49    11463         15    1   F    16 <= startOf(8)
 + New bound is 42 (gap is 14.29%)
 ! ----------------------------------------------------------------------------
 ! Search terminated by limit, 2 solutions found.
 ! Best objective         : 49 (gap is 14.29%)
 ! Best bound             : 42
 ! ----------------------------------------------------------------------------
 ! Number of branches     : 10653076
 ! Number of fails        : 3084546
 ! Total memory usage     : 10.4 MB (10.4 MB CP Optimizer + 0.1 MB Concert)
 ! Time spent in solve    : 60.06s (60.06s engine + 0.00s extraction)
 ! Search speed (br. / s) : 177373.9
 ! ----------------------------------------------------------------------------
(42,)
(0.142857,)
(49,)
Objective value: 49
Solution is 8.9 % worse than the lower bound.
Feasible solution found
